interdiction/MCDM/NO_CORR/GEN_FROM_60/10_ITEMS_1000_GEN/K5010W17.KNP.mps
NAME          BLANK   
ROWS
 N  OBJROW
 L  R0000000
COLUMNS
    C0000000  OBJROW     -451.         R0000000  998.        
    C0000001  OBJROW     -621.         R0000000  462.        
    C0000002  OBJROW     -438.         R0000000  392.        
    C0000003  OBJROW     -541.         R0000000  59.         
    C0000004  OBJROW     -368.         R0000000  835.        
    C0000005  OBJROW     -154.         R0000000  165.        
    C0000006  OBJROW     -969.         R0000000  845.        
    C0000007  OBJROW     -304.         R0000000  895.        
    C0000008  OBJROW     -414.         R0000000  411.        
    C0000009  OBJROW     -936.         R0000000  738.        
RHS
    RHS       R0000000  13735.      
BOUNDS
 BV BOUND     C0000000  1.          
 BV BOUND     C0000001  1.          
 BV BOUND     C0000002  1.          
 BV BOUND     C0000003  1.          
 BV BOUND     C0000004  1.          
 BV BOUND     C0000005  1.          
 BV BOUND     C0000006  1.          
 BV BOUND     C0000007  1.          
 BV BOUND     C0000008  1.          
 BV BOUND     C0000009  1.          
ENDATA
