interdiction/MCDM/NO_CORR/GEN_FROM_60/10_ITEMS_1000_GEN/K5010W17.KNP.txt
N 10
M 11
LC 10
LC 11
LC 12
LC 13
LC 14
LC 15
LC 16
LC 17
LC 18
LC 19
LR 1
LR 2
LR 3
LR 4
LR 5
LR 6
LR 7
LR 8
LR 9
LR 10
LR 11
LO -451
LO -621
LO -438
LO -541
LO -368
LO -154
LO -969
LO -304
LO -414
LO -936
OS 1
IC 390
IC 389
IC 681
IC 633
IC 353
IC 39
IC 968
IC 8
IC 918
IC 435
IB 2407
